NAME /Users/henri/Research/solvers/instances/idol-instances/robust/cflp_Cheng_et_al_2021/instances/Cap_F10_C40_d100/uncertainty_sets/uncertainty_sets/gamma-2.000000.mps
ROWS
 N  OBJ
 L  c_21
COLUMNS
    __constant OBJ        1
    MARKER    'MARKER'                 'INTORG'
    u_0        OBJ        0
    u_0        c_21       1
    u_1        OBJ        0
    u_1        c_21       1
    u_2        OBJ        0
    u_2        c_21       1
    u_3        OBJ        0
    u_3        c_21       1
    u_4        OBJ        0
    u_4        c_21       1
    u_5        OBJ        0
    u_5        c_21       1
    u_6        OBJ        0
    u_6        c_21       1
    u_7        OBJ        0
    u_7        c_21       1
    u_8        OBJ        0
    u_8        c_21       1
    u_9        OBJ        0
    u_9        c_21       1
    MARKER    'MARKER'                 'INTEND'
RHS
    RHS       c_21       2
BOUNDS
 FX BND       __constant 0
 LI BND       u_0        0
 UI BND       u_0        1
 LI BND       u_1        0
 UI BND       u_1        1
 LI BND       u_2        0
 UI BND       u_2        1
 LI BND       u_3        0
 UI BND       u_3        1
 LI BND       u_4        0
 UI BND       u_4        1
 LI BND       u_5        0
 UI BND       u_5        1
 LI BND       u_6        0
 UI BND       u_6        1
 LI BND       u_7        0
 UI BND       u_7        1
 LI BND       u_8        0
 UI BND       u_8        1
 LI BND       u_9        0
 UI BND       u_9        1
ENDATA
